c description: Random 3-CNF over 7 variables and 35 clauses
p cnf 7 35
1 -2 3 0
3 -4 6 0
-1 -5 6 0
-5 6 -7 0
4 -5 6 0
-1 3 6 0
-2 5 6 0
1 2 5 0
-1 4 5 0
-1 -4 6 0
1 3 7 0
3 5 -6 0
1 -3 -7 0
1 -3 5 0
1 -3 6 0
-5 6 7 0
-3 -4 -7 0
4 6 7 0
-1 2 5 0
3 -4 5 0
2 -5 6 0
-2 -6 -7 0
-2 4 5 0
-2 3 -6 0
2 -4 -5 0
2 4 -6 0
2 -3 7 0
1 4 5 0
-4 -5 7 0
-2 5 7 0
-1 3 -5 0
-4 5 7 0
-2 -3 -4 0
-2 5 -6 0
1 -5 -6 0